Minimize
 obj: 0 X_0_1
Subject To
 out_0:
  + 1 X_0_1 + 1 X_0_2 + 1 X_0_3 + 1 X_0_4
  = 1
 in_0:
  + 1 X_1_0 + 1 X_2_0 + 1 X_3_0 + 1 X_4_0
  = 1
 out_1:
  + 1 X_1_0 + 1 X_1_2 + 1 X_1_3 + 1 X_1_4
  = 1
 in_1:
  + 1 X_0_1 + 1 X_2_1 + 1 X_3_1 + 1 X_4_1
  = 1
 out_2:
  + 1 X_2_0 + 1 X_2_1 + 1 X_2_3 + 1 X_2_4
  = 1
 in_2:
  + 1 X_0_2 + 1 X_1_2 + 1 X_3_2 + 1 X_4_2
  = 1
 out_3:
  + 1 X_3_0 + 1 X_3_1 + 1 X_3_2 + 1 X_3_4
  = 1
 in_3:
  + 1 X_0_3 + 1 X_1_3 + 1 X_2_3 + 1 X_4_3
  = 1
 out_4:
  + 1 X_4_0 + 1 X_4_1 + 1 X_4_2 + 1 X_4_3
  = 1
 in_4:
  + 1 X_0_4 + 1 X_1_4 + 1 X_2_4 + 1 X_3_4
  = 1
 mtz_1_2:
  + 1 U1 - 1 U2 + 4 X_1_2
  <= 3
 mtz_1_3:
  + 1 U1 - 1 U3 + 4 X_1_3
  <= 3
 mtz_1_4:
  + 1 U1 - 1 U4 + 4 X_1_4
  <= 3
 mtz_2_1:
  + 1 U2 - 1 U1 + 4 X_2_1
  <= 3
 mtz_2_3:
  + 1 U2 - 1 U3 + 4 X_2_3
  <= 3
 mtz_2_4:
  + 1 U2 - 1 U4 + 4 X_2_4
  <= 3
 mtz_3_1:
  + 1 U3 - 1 U1 + 4 X_3_1
  <= 3
 mtz_3_2:
  + 1 U3 - 1 U2 + 4 X_3_2
  <= 3
 mtz_3_4:
  + 1 U3 - 1 U4 + 4 X_3_4
  <= 3
 mtz_4_1:
  + 1 U4 - 1 U1 + 4 X_4_1
  <= 3
 mtz_4_2:
  + 1 U4 - 1 U2 + 4 X_4_2
  <= 3
 mtz_4_3:
  + 1 U4 - 1 U3 + 4 X_4_3
  <= 3
 obj1:
  + 371 X_0_1 + 784 X_0_2 + 629 X_0_3 + 788 X_0_4 + 371 X_1_0 + 841 X_1_2 + 576 X_1_3 + 909 X_1_4
  + 784 X_2_0 + 841 X_2_1 + 301 X_2_3 + 153 X_2_4 + 629 X_3_0 + 576 X_3_1 + 301 X_3_2 + 423 X_3_4
  + 788 X_4_0 + 909 X_4_1 + 153 X_4_2 + 423 X_4_3
  <= 1
 obj2:
  + 538 X_0_1 + 534 X_0_2 + 448 X_0_3 + 211 X_0_4 + 538 X_1_0 + 595 X_1_2 + 393 X_1_3 + 719 X_1_4
  + 534 X_2_0 + 595 X_2_1 + 822 X_2_3 + 526 X_2_4 + 448 X_3_0 + 393 X_3_1 + 822 X_3_2 + 657 X_3_4
  + 211 X_4_0 + 719 X_4_1 + 526 X_4_2 + 657 X_4_3
  <= 2
 obj3:
  + 695 X_0_1 + 580 X_0_2 + 130 X_0_3 + 124 X_0_4 + 695 X_1_0 + 119 X_1_2 + 739 X_1_3 + 725 X_1_4
  + 580 X_2_0 + 119 X_2_1 + 632 X_2_3 + 606 X_2_4 + 130 X_3_0 + 739 X_3_1 + 632 X_3_2 + 249 X_3_4
  + 124 X_4_0 + 725 X_4_1 + 606 X_4_2 + 249 X_4_3
  <= 3
 obj4:
  + 292 X_0_1 + 539 X_0_2 + 609 X_0_3 + 888 X_0_4 + 292 X_1_0 + 765 X_1_2 + 618 X_1_3 + 1115 X_1_4
  + 539 X_2_0 + 765 X_2_1 + 523 X_2_3 + 351 X_2_4 + 609 X_3_0 + 618 X_3_1 + 523 X_3_2 + 761 X_3_4
  + 888 X_4_0 + 1115 X_4_1 + 351 X_4_2 + 761 X_4_3
  <= 4
 obj5:
  + 448 X_0_1 + 257 X_0_2 + 449 X_0_3 + 737 X_0_4 + 448 X_1_0 + 286 X_1_2 + 463 X_1_3 + 331 X_1_4
  + 257 X_2_0 + 286 X_2_1 + 244 X_2_3 + 503 X_2_4 + 449 X_3_0 + 463 X_3_1 + 244 X_3_2 + 533 X_3_4
  + 737 X_4_0 + 331 X_4_1 + 503 X_4_2 + 533 X_4_3
  <= 5
Bounds
 1 <= U1 <= 4
 1 <= U2 <= 4
 1 <= U3 <= 4
 1 <= U4 <= 4
Binary
 X_0_1
 X_0_2
 X_0_3
 X_0_4
 X_1_0
 X_1_2
 X_1_3
 X_1_4
 X_2_0
 X_2_1
 X_2_3
 X_2_4
 X_3_0
 X_3_1
 X_3_2
 X_3_4
 X_4_0
 X_4_1
 X_4_2
 X_4_3
End
